%chk=sample.chk
%NProcShared=4
%mem=8000MB
#p B3LYP/6-31G(d) Opt Freq

Test molecule

-1 1
 C    0.000000    0.000000    0.000000
 H    0.631339    0.631339    0.631339
 H   -0.631339   -0.631339    0.631339
 H   -0.631339    0.631339   -0.631339
 H    0.631339   -0.631339   -0.631339

